
Gurobi 9.0.2 (linux64) logging started Fri Jun  5 19:14:32 2020

Changed value of parameter LogFile to gurobi_logs/2020-06-05_19:14:30-rproblem5_30_employees_mode=feasibility_sdp_reduce.log
   Prev:   Default: 
Parameter MIPFocus unchanged
   Value: 0  Min: 0  Max: 3  Default: 0
Parameter SolutionLimit unchanged
   Value: 2000000000  Min: 1  Max: 2000000000  Default: 2000000000
Parameter LogToConsole unchanged
   Value: 1  Min: 0  Max: 1  Default: 1
Changed value of parameter TimeLimit to 10000.0
   Prev: inf  Min: 0.0  Max: inf  Default: inf
Gurobi Optimizer version 9.0.2 build v9.0.2rc0 (linux64)
Optimize a model with 3966 rows, 4236 columns and 10494 nonzeros
Model fingerprint: 0x0b0943c9
Variable types: 42 continuous, 4194 integer (270 binary)
Coefficient statistics:
  Matrix range     [1e+00, 1e+03]
  Objective range  [5e-01, 5e+00]
  Bounds range     [1e+00, 1e+00]
  RHS range        [4e+00, 1e+01]
Presolve removed 3966 rows and 4236 columns
Presolve time: 0.00s
Presolve: All rows and columns removed

Explored 0 nodes (0 simplex iterations) in 0.01 seconds
Thread count was 1 (of 48 available processors)

Solution count 1: 510 

Optimal solution found (tolerance 1.00e-04)
Best objective 5.100000000000e+02, best bound 5.100000000000e+02, gap 0.0000%

Gurobi 9.0.2 (linux64) logging started Fri Jun  5 19:14:34 2020

Changed value of parameter LogFile to gurobi_logs/2020-06-05_19:14:30-rproblem5_30_employees_mode=feasibility_sdp_reduce.log
   Prev:   Default: 
Parameter MIPFocus unchanged
   Value: 0  Min: 0  Max: 3  Default: 0
Parameter SolutionLimit unchanged
   Value: 2000000000  Min: 1  Max: 2000000000  Default: 2000000000
Parameter LogToConsole unchanged
   Value: 1  Min: 0  Max: 1  Default: 1
Changed value of parameter TimeLimit to 10000.0
   Prev: inf  Min: 0.0  Max: inf  Default: inf
Gurobi Optimizer version 9.0.2 build v9.0.2rc0 (linux64)
Optimize a model with 131874 rows, 101964 columns and 4001940 nonzeros
Model fingerprint: 0x80802105
Variable types: 30 continuous, 101934 integer (98280 binary)
Coefficient statistics:
  Matrix range     [5e-01, 1e+02]
  Objective range  [1e+00, 1e+00]
  Bounds range     [1e+00, 1e+00]
  RHS range        [1e+00, 2e+02]
Presolve removed 65202 rows and 29064 columns (presolve time = 5s) ...
Presolve removed 65202 rows and 29064 columns (presolve time = 10s) ...
Presolve removed 64842 rows and 28704 columns
Presolve time: 10.79s
Presolved: 67032 rows, 73260 columns, 1434810 nonzeros
Variable types: 0 continuous, 73260 integer (72900 binary)

Deterministic concurrent LP optimizer: primal and dual simplex
Showing first log only...


Root simplex log...

Iteration    Objective       Primal Inf.    Dual Inf.      Time
       0    1.0236000e+04   3.471250e+03   1.063000e+10     12s
   16500    1.0236000e+04   3.121560e+02   1.364901e+10     15s
   27070    1.0236000e+04   0.000000e+00   0.000000e+00     19s
Concurrent spin time: 1.27s

Solved with primal simplex

Root relaxation: objective 1.023600e+04, 27070 iterations, 8.64 seconds
Total elapsed time = 25.49s

    Nodes    |    Current Node    |     Objective Bounds      |     Work
 Expl Unexpl |  Obj  Depth IntInf | Incumbent    BestBd   Gap | It/Node Time

     0     0 10236.0000    0  124          - 10236.0000      -     -   26s
     0     0 10236.0000    0  188          - 10236.0000      -     -   29s
     0     0 10236.0000    0  260          - 10236.0000      -     -   30s
     0     0 10236.0000    0  155          - 10236.0000      -     -   41s
     0     0 10236.0000    0  219          - 10236.0000      -     -   43s
     0     0 10236.0000    0   70          - 10236.0000      -     -   58s
     0     0 10236.0000    0   86          - 10236.0000      -     -   58s
     0     0 10236.0000    0   80          - 10236.0000      -     -   73s
     0     0 10236.0000    0   80          - 10236.0000      -     -   75s
     0     2 10236.0000    0   54          - 10236.0000      -     -   95s
    55    80 10236.0000    6   50          - 10236.0000      -   508  102s
   157   243 10236.0000    9   32          - 10236.0000      -   292  105s
   430   871 10236.0000   15   48          - 10236.0000      -   144  110s
   870  2152 10236.0000   32   24          - 10236.0000      -   100  120s
H  882  2152                    10236.000000 10236.0000  0.00%   100  120s

Cutting planes:
  Gomory: 21
  Cover: 172
  Clique: 572
  MIR: 242
  StrongCG: 154
  GUB cover: 14
  Zero half: 23
  RLT: 2
  Relax-and-lift: 3

Explored 2151 nodes (231296 simplex iterations) in 120.31 seconds
Thread count was 24 (of 48 available processors)

Solution count 1: 10236 

Optimal solution found (tolerance 1.00e-04)
Best objective 1.023600000000e+04, best bound 1.023600000000e+04, gap 0.0000%
